NAME = SAfile180,
TOURSIZE = 180,
LENGTH = 1950,
144,108,157,56,86,87,154,129,102,88,107,35,84,130,174,173,175,22,6,132,150,149,68,17,19,106,166,179,121,80,13,134,122,20,52,43,139,152,29,16,12,45,172,116,158,135,66,36,37,23,70,77,128,155,41,83,171,64,24,44,118,89,168,14,60,85,82,72,62,137,26,101,126,127,146,143,100,65,112,81,48,94,162,79,93,8,21,42,138,46,40,147,15,61,63,11,1,91,98,142,57,113,32,4,50,38,34,10,97,156,2,18,136,90,167,75,39,3,110,105,69,67,131,76,53,31,141,27,114,111,103,96,170,164,54,28,73,33,125,58,180,176,5,140,71,119,99,49,117,151,161,59,148,9,177,169,55,124,123,153,159,78,74,163,145,104,160,165,115,120,7,178,47,51,30,109,95,92,25,133